Solving original (integer) problem with strategy gdp.hull_exact...
--- Job model.gms Start 02/16/26 18:20:48 52.2.0 d8e408be LEX-LEG x86 64bit/Linux
--- Applying:
    /package/gams/52.2/gmsprmun.txt
--- GAMS Parameters defined
    Input /local/scratch/a/sgusev/repos/k_means/data/gams_scip_gdp.hull_exact/no_mode/2026-02-16_18-20-48/original/model.gms
    Output /local/scratch/a/sgusev/repos/k_means/data/gams_scip_gdp.hull_exact/no_mode/2026-02-16_18-20-48/original/output.lst
    ScrDir /local/scratch/a/sgusev/repos/k_means/data/gams_scip_gdp.hull_exact/no_mode/2026-02-16_18-20-48/original/225a/
    SysDir /package/gams/52.2/
    CurDir /local/scratch/a/sgusev/repos/k_means/data/gams_scip_gdp.hull_exact/no_mode/2026-02-16_18-20-48/original/
    LogOption 3
    AppendLog 1
Licensee: David Bernal / SECQUOIA Research Group         G251008+0003Ac-GEN
          Purdue University, Davidson School of Chemical EngineeringDCE4838
          225a/gamslice.dat
          5a82958a-fbca-4a23
          node:66820903 mem:995 cores:48 ipport:49649 v:2                  
          Evaluation license: Not for commercial or production use
          The time-limited license stops working on : Jun 30, 2027
System information: 48 physical cores and 995 Gb physical memory detected
GAMS 52.2.0   Copyright (C) 1987-2025 GAMS Development. All rights reserved
--- Starting compilation
--- model.gms(6236) 2 Mb
--- $echo File /local/scratch/a/sgusev/repos/k_means/data/gams_scip_gdp.hull_exact/no_mode/2026-02-16_18-20-48/original/scip.opt
--- model.gms(9100) 3 Mb
--- Starting execution: elapsed 0:00:00.030
--- model.gms(6246) 4 Mb
--- Generating MINLP model GAMS_MODEL
--- model.gms(6250) 6 Mb
---   1,909 rows  888 columns  4,633 non-zeroes
---   2,975 nl-code  510 nl-non-zeroes
---   85 discrete-columns
--- Range statistics (absolute non-zero finite values)
--- RHS       [min, max] : [ 1.000E+00, 1.000E+00] - Zero values observed as well
--- Bound     [min, max] : [ 1.000E+00, 1.360E+02] - Zero values observed as well
--- Matrix    [min, max] : [ 1.000E+00, 1.360E+02] - Zero values observed as well
--- model.gms(6250) 4 Mb
--- Executing SCIP (Solvelink=5): elapsed 0:00:00.039

SCIP             52.2.0 d8e408be Dec 8, 2025           LEG x86 64bit/Linux    
SCIP version 9.2.4 (a94f778ac8)
Copyright (c) 2002-2025 Zuse Institute Berlin (ZIB)

External libraries: 
  CPLEX 22.1.2.0       Linear Programming Solver developed by IBM (www.cplex.com)
  CppAD 20180000.0     Algorithmic Differentiation of C++ algorithms developed by B. Bell (github.com/coin-or/CppAD)
  PaPILO 2.4.4         parallel presolve for integer and linear optimization (github.com/scipopt/papilo) (built with TBB) [GitHash: 7c826d50]
  Nauty 2.8.9          Computing Graph Automorphism Groups by Brendan D. McKay (users.cecs.anu.edu.au/~bdm/nauty)
  sassy 1.1            Symmetry preprocessor by Markus Anders (github.com/markusa4/sassy)
  Ipopt 3.14.19        Interior Point Optimizer developed by A. Waechter et.al. (github.com/coin-or/Ipopt)

reading option file /local/scratch/a/sgusev/repos/k_means/data/gams_scip_gdp.hull_exact/no_mode/2026-02-16_18-20-48/original/scip.opt
non-default parameter settings:
limits/time = 300
limits/gap = 1e-06
limits/absgap = 1e-10
lp/threads = 1
misc/printreason = FALSE
numerics/dualfeastol = 1e-06
parallel/maxnthreads = 1
nlpi/ipopt/linear_solver = "ma27"
nlpi/ipopt/linear_system_scaling = "mc19"

original problem has 887 variables (85 bin, 0 int, 802 cont) and 1908 constraints

all 1 solutions given by solution candidate storage are infeasible

presolving:
(round 1, fast)       17 del vars, 0 del conss, 0 add conss, 0 chg bounds, 0 chg sides, 0 chg coeffs, 0 upgd conss, 0 impls, 17 clqs
(round 2, fast)       17 del vars, 0 del conss, 0 add conss, 0 chg bounds, 17 chg sides, 0 chg coeffs, 0 upgd conss, 0 impls, 17 clqs
(round 3, exhaustive) 17 del vars, 0 del conss, 0 add conss, 0 chg bounds, 17 chg sides, 0 chg coeffs, 1462 upgd conss, 0 impls, 17 clqs
   (0.1s) probing cycle finished: starting next cycle
   (0.1s) symmetry computation started: requiring (bin +, int +, cont +), (fixed: bin -, int -, cont -)
   (0.1s) no symmetry present (symcode time: 0.00)
presolving (4 rounds: 4 fast, 2 medium, 2 exhaustive):
 17 deleted vars, 0 deleted constraints, 0 added constraints, 0 tightened bounds, 0 added holes, 17 changed sides, 0 changed coefficients
 4505 implications, 17 cliques
presolved problem has 870 variables (85 bin, 0 int, 0 impl, 785 cont) and 1908 constraints
   1445 constraints of type <varbound>
     17 constraints of type <setppc>
    361 constraints of type <linear>
     85 constraints of type <nonlinear>
Presolving Time: 0.06

 time | node  | left  |LP iter|LP it/n|mem/heur|mdpt |vars |cons |rows |cuts |sepa|confs|strbr|  dualbound   | primalbound  |  gap   | compl. 
  0.2s|     1 |     0 |   699 |     - |    19M |   0 |1720 |1908 |3013 |   0 |  0 |   0 |   0 | 0.000000e+00 |      --      |    Inf | unknown
o 0.2s|     1 |     0 |   997 |     - |feaspump|   0 |1720 |1908 |3013 |   0 |  0 |   0 |   0 | 0.000000e+00 | 1.795698e+01 |    Inf | unknown
  0.2s|     1 |     0 |  1197 |     - |    21M |   0 |1720 |1908 |3102 |  89 |  1 |   0 |   0 | 0.000000e+00 | 1.795698e+01 |    Inf | unknown
  0.2s|     1 |     0 |  1197 |     - |    21M |   0 |1720 |1908 |3085 |  89 |  1 |   0 |   0 | 0.000000e+00 | 1.795698e+01 |    Inf | unknown
  0.3s|     1 |     0 |  1479 |     - |    22M |   0 |1720 |1908 |3261 | 265 |  2 |   0 |   0 | 0.000000e+00 | 1.795698e+01 |    Inf | unknown
  0.3s|     1 |     0 |  1748 |     - |    23M |   0 |1720 |1908 |3439 | 443 |  3 |   0 |   0 | 0.000000e+00 | 1.795698e+01 |    Inf | unknown
  0.4s|     1 |     0 |  1981 |     - |    24M |   0 |1720 |1908 |3566 | 570 |  4 |   0 |   0 | 0.000000e+00 | 1.795698e+01 |    Inf | unknown
  0.4s|     1 |     0 |  2190 |     - |    24M |   0 |1720 |1908 |3683 | 687 |  5 |   0 |   0 | 0.000000e+00 | 1.795698e+01 |    Inf | unknown
  0.5s|     1 |     0 |  2344 |     - |    25M |   0 |1720 |1908 |3781 | 785 |  6 |   0 |   0 | 0.000000e+00 | 1.795698e+01 |    Inf | unknown
  0.5s|     1 |     0 |  2504 |     - |    25M |   0 |1720 |1908 |3872 | 876 |  7 |   0 |   0 | 0.000000e+00 | 1.795698e+01 |    Inf | unknown
  0.6s|     1 |     0 |  2690 |     - |    26M |   0 |1720 |1908 |3969 | 973 |  8 |   0 |   0 | 0.000000e+00 | 1.795698e+01 |    Inf | unknown
  0.7s|     1 |     0 |  2877 |     - |    27M |   0 |1720 |1908 |4065 |1069 |  9 |   0 |   0 | 0.000000e+00 | 1.795698e+01 |    Inf | unknown
  0.7s|     1 |     0 |  3058 |     - |    27M |   0 |1720 |1908 |4151 |1155 | 10 |   0 |   0 | 0.000000e+00 | 1.795698e+01 |    Inf | unknown
  0.8s|     1 |     0 |  3232 |     - |    28M |   0 |1720 |1908 |4228 |1232 | 11 |   0 |   0 | 0.000000e+00 | 1.795698e+01 |    Inf | unknown
L 6.8s|     1 |     0 | 18600 |     - |    rens|   0 |1720 |1891 |4228 |1232 | 11 |   0 |   0 | 0.000000e+00 | 1.392216e+01 |    Inf | unknown
 time | node  | left  |LP iter|LP it/n|mem/heur|mdpt |vars |cons |rows |cuts |sepa|confs|strbr|  dualbound   | primalbound  |  gap   | compl. 
  7.8s|     1 |     0 | 18600 |     - |    30M |   0 |1720 |1891 |4228 |1232 | 11 |   0 |   0 | 0.000000e+00 | 1.392216e+01 |    Inf | unknown
  7.8s|     1 |     0 | 18760 |     - |    30M |   0 |1720 |1891 |4303 |1307 | 12 |   0 |   0 | 0.000000e+00 | 1.392216e+01 |    Inf | unknown
  7.8s|     1 |     0 | 18827 |     - |    31M |   0 |1720 |1891 |4328 |1332 | 13 |   0 |   0 | 0.000000e+00 | 1.392216e+01 |    Inf | unknown
  8.2s|     1 |     2 | 18827 |     - |    31M |   0 |1720 |1891 |4328 |1332 | 13 |   0 |  37 | 0.000000e+00 | 1.392216e+01 |    Inf | unknown
d 8.6s|    20 |    21 | 26063 |1197.1 |fracdivi|   9 |1720 |1891 |3269 |4888 |  9 |   0 |  37 | 0.000000e+00 | 1.154360e+01 |    Inf | unknown
 12.4s|   100 |   101 | 56357 | 535.7 |    46M |  19 |1720 |1891 |3458 |  17k|  2 |   0 | 237 | 0.000000e+00 | 1.154360e+01 |    Inf | unknown
L13.0s|   120 |   121 | 62120 | 494.1 |    gins|  19 |1720 |1891 |3003 |  20k|  2 |   0 | 264 | 0.000000e+00 | 1.096042e+01 |    Inf | unknown
 15.1s|   200 |   201 | 89462 | 432.9 |    60M |  21 |1720 |1891 |3118 |  31k|  5 |   0 | 318 | 0.000000e+00 | 1.096042e+01 |    Inf | unknown
L16.3s|   257 |   258 |106053 | 401.3 |    alns|  21 |1720 |1891 |3648 |  38k|  8 |   0 | 325 | 0.000000e+00 | 1.017275e+01 |    Inf | unknown
L16.4s|   257 |   258 |106053 | 401.3 |    alns|  21 |1720 |1891 |3648 |  38k|  8 |   0 | 325 | 0.000000e+00 | 1.017274e+01 |    Inf | unknown
 17.6s|   300 |   301 |122735 | 399.4 |    72M |  21 |1720 |1891 |3032 |  44k|  7 |   0 | 336 | 0.000000e+00 | 1.017274e+01 |    Inf | unknown
 20.6s|   400 |   401 |169149 | 415.6 |    83M |  23 |1720 |1891 |3347 |  60k|  2 |   0 | 339 | 0.000000e+00 | 1.017274e+01 |    Inf | unknown
 24.3s|   500 |   501 |218691 | 431.6 |    97M |  26 |1720 |1891 |3170 |  76k|  9 |   0 | 343 | 0.000000e+00 | 1.017274e+01 |    Inf | unknown
 27.5s|   600 |   601 |263828 | 434.9 |   108M |  26 |1720 |1891 |3608 |  91k|  7 |   2 | 357 | 0.000000e+00 | 1.017274e+01 |    Inf | unknown
L28.2s|   620 |   621 |274683 | 438.4 |    gins|  26 |1720 |1891 |3477 |  94k|  7 |   2 | 362 | 0.000000e+00 | 9.657893e+00 |    Inf | unknown
 time | node  | left  |LP iter|LP it/n|mem/heur|mdpt |vars |cons |rows |cuts |sepa|confs|strbr|  dualbound   | primalbound  |  gap   | compl. 
 30.5s|   700 |   701 |307886 | 435.7 |   120M |  26 |1720 |1891 |3161 | 106k|  2 |   8 | 376 | 0.000000e+00 | 9.657893e+00 |    Inf | unknown
L31.2s|   720 |   721 |317185 | 436.5 |    gins|  26 |1720 |1891 |3438 | 109k| 10 |   9 | 382 | 0.000000e+00 | 9.270182e+00 |    Inf | unknown
 33.5s|   800 |   801 |352587 | 437.1 |   129M |  26 |1720 |1891 |3280 | 122k|  9 |  11 | 391 | 0.000000e+00 | 9.270182e+00 |    Inf | unknown
 36.0s|   900 |   901 |389245 | 429.3 |   136M |  26 |1720 |1891 |3584 | 135k|  4 |  25 | 401 | 0.000000e+00 | 9.270182e+00 |    Inf | unknown
 38.8s|  1000 |  1001 |429025 | 426.1 |   147M |  26 |1720 |1891 |3413 | 150k|  7 |  29 | 410 | 0.000000e+00 | 9.270182e+00 |    Inf | unknown
 41.4s|  1100 |  1099 |469614 | 424.3 |   153M |  26 |1720 |1891 |3742 | 165k|  8 |  35 | 417 | 0.000000e+00 | 9.270182e+00 |    Inf | unknown
 44.5s|  1200 |  1197 |517449 | 428.8 |   163M |  26 |1720 |1891 |3537 | 182k|  2 |  43 | 423 | 0.000000e+00 | 9.270182e+00 |    Inf | unknown
 47.3s|  1300 |  1297 |560333 | 428.8 |   168M |  26 |1720 |1891 |3822 | 196k|  8 |  50 | 426 | 0.000000e+00 | 9.270182e+00 |    Inf | unknown
 50.1s|  1400 |  1397 |603580 | 429.1 |   175M |  26 |1720 |1891 |3466 | 210k|  4 |  53 | 430 | 0.000000e+00 | 9.270182e+00 |    Inf | unknown
 53.4s|  1500 |  1497 |655441 | 435.0 |   182M |  26 |1720 |1891 |3596 | 227k|  8 |  59 | 438 | 0.000000e+00 | 9.270182e+00 |    Inf | unknown
 56.1s|  1600 |  1597 |694577 | 432.3 |   186M |  26 |1720 |1891 |3566 | 240k|  6 |  60 | 448 | 0.000000e+00 | 9.270182e+00 |    Inf | unknown
 58.9s|  1700 |  1697 |734933 | 430.6 |   189M |  26 |1720 |1891 |3366 | 254k|  2 |  64 | 459 | 0.000000e+00 | 9.270182e+00 |    Inf | unknown
 61.8s|  1800 |  1797 |777032 | 430.1 |   198M |  26 |1720 |1891 |3616 | 269k|  6 |  66 | 466 | 0.000000e+00 | 9.270182e+00 |    Inf | unknown
 65.1s|  1900 |  1897 |823720 | 432.0 |   203M |  26 |1720 |1891 |3608 | 283k|  6 |  71 | 472 | 0.000000e+00 | 9.270182e+00 |    Inf | unknown
 68.2s|  2000 |  1997 |865048 | 431.1 |   208M |  26 |1720 |1891 |3899 | 297k|  7 |  75 | 483 | 0.000000e+00 | 9.270182e+00 |    Inf | unknown
 time | node  | left  |LP iter|LP it/n|mem/heur|mdpt |vars |cons |rows |cuts |sepa|confs|strbr|  dualbound   | primalbound  |  gap   | compl. 
 70.6s|  2100 |  2095 |896753 | 425.6 |   213M |  29 |1720 |1891 |3556 | 309k|  6 |  76 | 483 | 0.000000e+00 | 9.270182e+00 |    Inf | unknown
 73.3s|  2200 |  2195 |933030 | 422.8 |   222M |  32 |1720 |1891 |3265 | 322k|  7 |  79 | 493 | 0.000000e+00 | 9.270182e+00 |    Inf | unknown
d74.2s|  2243 |  2194 |945852 | 420.4 |linesear|  34 |1720 |1891 |3711 | 327k|  7 |  80 | 494 | 0.000000e+00 | 8.441299e+00 |    Inf | unknown
 75.6s|  2300 |  2245 |962389 | 417.2 |   224M |  35 |1720 |1891 |3768 | 334k|  2 |  84 | 498 | 0.000000e+00 | 8.441299e+00 |    Inf | unknown
 77.8s|  2400 |  2335 |993860 | 412.9 |   229M |  35 |1720 |1891 |3254 | 346k|  2 |  90 | 501 | 0.000000e+00 | 8.441299e+00 |    Inf | unknown
 81.6s|  2500 |  2425 |  1027k| 410.0 |   233M |  35 |1720 |1891 |3832 | 359k|  7 |  95 | 502 | 0.000000e+00 | 8.441299e+00 |    Inf | unknown
 83.7s|  2600 |  2519 |  1052k| 403.5 |   237M |  35 |1720 |1891 |3640 | 369k|  7 |  98 | 506 | 0.000000e+00 | 8.441299e+00 |    Inf | unknown
 86.0s|  2700 |  2615 |  1081k| 399.6 |   242M |  37 |1720 |1891 |3638 | 381k|  7 | 102 | 513 | 0.000000e+00 | 8.441299e+00 |    Inf | unknown
 88.2s|  2800 |  2709 |  1109k| 395.2 |   246M |  37 |1720 |1891 |3839 | 392k|  6 | 104 | 518 | 0.000000e+00 | 8.441299e+00 |    Inf | unknown
 90.8s|  2900 |  2807 |  1143k| 393.2 |   249M |  37 |1720 |1891 |3608 | 405k|  5 | 107 | 524 | 0.000000e+00 | 8.441299e+00 |    Inf | unknown
 93.0s|  3000 |  2901 |  1170k| 389.2 |   252M |  37 |1720 |1891 |3893 | 416k|  5 | 110 | 537 | 0.000000e+00 | 8.441299e+00 |    Inf | unknown
 95.1s|  3100 |  3001 |  1194k| 384.5 |   257M |  37 |1720 |1891 |3920 | 426k|  9 | 119 | 552 | 0.000000e+00 | 8.441299e+00 |    Inf | unknown
 96.7s|  3200 |  3089 |  1211k| 377.7 |   261M |  41 |1720 |1891 |3946 | 434k|  7 | 128 | 561 | 0.000000e+00 | 8.441299e+00 |    Inf | unknown
 98.6s|  3300 |  3169 |  1235k| 373.4 |   269M |  41 |1720 |1891 |3689 | 444k|  0 | 130 | 567 | 0.000000e+00 | 8.441299e+00 |    Inf | unknown
  101s|  3400 |  3257 |  1258k| 369.3 |   274M |  41 |1720 |1891 |3649 | 455k|  6 | 132 | 568 | 0.000000e+00 | 8.441299e+00 |    Inf | unknown
 time | node  | left  |LP iter|LP it/n|mem/heur|mdpt |vars |cons |rows |cuts |sepa|confs|strbr|  dualbound   | primalbound  |  gap   | compl. 
  103s|  3500 |  3341 |  1286k| 366.8 |   282M |  41 |1720 |1891 |3558 | 466k|  7 | 136 | 571 | 0.000000e+00 | 8.441299e+00 |    Inf | unknown
  105s|  3600 |  3431 |  1316k| 365.0 |   284M |  41 |1720 |1891 |3641 | 478k|  5 | 141 | 575 | 0.000000e+00 | 8.441299e+00 |    Inf | unknown
  107s|  3700 |  3521 |  1340k| 361.5 |   288M |  41 |1720 |1891 |3696 | 489k|  8 | 146 | 580 | 0.000000e+00 | 8.441299e+00 |    Inf | unknown
  109s|  3800 |  3611 |  1373k| 360.8 |   293M |  41 |1720 |1891 |3848 | 501k|  6 | 156 | 581 | 0.000000e+00 | 8.441299e+00 |    Inf | unknown
  112s|  3900 |  3685 |  1404k| 359.3 |   298M |  41 |1720 |1891 |3672 | 513k|  2 | 162 | 589 | 0.000000e+00 | 8.441299e+00 |    Inf | unknown
  114s|  4000 |  3771 |  1430k| 356.8 |   301M |  41 |1720 |1891 |3701 | 524k|  7 | 173 | 595 | 0.000000e+00 | 8.441299e+00 |    Inf | unknown
  116s|  4100 |  3867 |  1461k| 355.8 |   303M |  41 |1720 |1891 |4010 | 535k|  7 | 174 | 608 | 0.000000e+00 | 8.441299e+00 |    Inf | unknown
  118s|  4200 |  3947 |  1481k| 352.0 |   305M |  41 |1720 |1891 |3832 | 544k|  8 | 181 | 614 | 0.000000e+00 | 8.441299e+00 |    Inf | unknown
  120s|  4300 |  4039 |  1511k| 350.8 |   309M |  42 |1720 |1891 |3779 | 556k|  6 | 190 | 622 | 0.000000e+00 | 8.441299e+00 |    Inf | unknown
  123s|  4400 |  4133 |  1540k| 349.5 |   314M |  42 |1720 |1891 |3922 | 566k|  5 | 198 | 626 | 0.000000e+00 | 8.441299e+00 |    Inf | unknown
  125s|  4500 |  4231 |  1568k| 347.9 |   317M |  42 |1720 |1891 |3879 | 576k|  8 | 208 | 627 | 0.000000e+00 | 8.441299e+00 |    Inf | unknown
  128s|  4600 |  4331 |  1604k| 348.2 |   323M |  42 |1720 |1891 |4072 | 587k|  4 | 212 | 628 | 0.000000e+00 | 8.441299e+00 |    Inf | unknown
  130s|  4700 |  4425 |  1630k| 346.4 |   335M |  43 |1720 |1891 |4130 | 597k|  6 | 215 | 635 | 0.000000e+00 | 8.441299e+00 |    Inf | unknown
  132s|  4800 |  4517 |  1663k| 345.9 |   343M |  43 |1720 |1891 |3975 | 607k|  5 | 219 | 639 | 0.000000e+00 | 8.441299e+00 |    Inf | unknown
  134s|  4900 |  4601 |  1684k| 343.2 |   358M |  47 |1720 |1891 |4031 | 616k|  6 | 223 | 639 | 0.000000e+00 | 8.441299e+00 |    Inf | unknown
 time | node  | left  |LP iter|LP it/n|mem/heur|mdpt |vars |cons |rows |cuts |sepa|confs|strbr|  dualbound   | primalbound  |  gap   | compl. 
  136s|  5000 |  4675 |  1709k| 341.4 |   365M |  47 |1720 |1891 |4203 | 625k|  4 | 227 | 640 | 0.000000e+00 | 8.441299e+00 |    Inf | unknown
  138s|  5100 |  4713 |  1722k| 337.1 |   370M |  47 |1720 |1891 |4166 | 631k|  0 | 228 | 640 | 0.000000e+00 | 8.441299e+00 |    Inf | unknown
  139s|  5200 |  4789 |  1743k| 334.7 |   376M |  48 |1720 |1891 |3949 | 640k|  6 | 230 | 646 | 0.000000e+00 | 8.441299e+00 |    Inf | unknown
  141s|  5300 |  4851 |  1765k| 332.5 |   382M |  48 |1720 |1891 |4089 | 649k|  1 | 232 | 647 | 0.000000e+00 | 8.441299e+00 |    Inf | unknown
  143s|  5400 |  4913 |  1782k| 329.5 |   387M |  48 |1720 |1891 |4235 | 658k|  7 | 238 | 649 | 0.000000e+00 | 8.441299e+00 |    Inf | unknown
  144s|  5500 |  4973 |  1801k| 326.9 |   393M |  48 |1720 |1891 |3671 | 665k|  2 | 242 | 650 | 0.000000e+00 | 8.441299e+00 |    Inf | unknown
  146s|  5600 |  5035 |  1823k| 325.1 |   394M |  48 |1720 |1891 |3822 | 675k|  0 | 245 | 650 | 0.000000e+00 | 8.441299e+00 |    Inf | unknown
  148s|  5700 |  5117 |  1845k| 323.2 |   397M |  48 |1720 |1891 |3752 | 685k|  5 | 250 | 655 | 0.000000e+00 | 8.441299e+00 |    Inf | unknown
  150s|  5800 |  5183 |  1863k| 320.7 |   402M |  48 |1720 |1891 |4176 | 694k|  1 | 256 | 656 | 0.000000e+00 | 8.441299e+00 |    Inf | unknown
  152s|  5900 |  5265 |  1893k| 320.5 |   407M |  48 |1720 |1891 |3826 | 704k|  2 | 257 | 658 | 0.000000e+00 | 8.441299e+00 |    Inf | unknown
  154s|  6000 |  5333 |  1914k| 318.7 |   411M |  48 |1720 |1891 |4011 | 713k|  6 | 265 | 661 | 0.000000e+00 | 8.441299e+00 |    Inf | unknown
  156s|  6100 |  5405 |  1941k| 317.8 |   417M |  48 |1720 |1891 |4009 | 723k|  2 | 272 | 662 | 0.000000e+00 | 8.441299e+00 |    Inf | unknown
L 157s|  6126 |  5301 |  1947k| 317.4 |crossove|  48 |1720 |1891 |3770 | 725k|  7 | 274 | 662 | 0.000000e+00 | 8.175469e+00 |    Inf |   3.27%
  158s|  6200 |  5357 |  1964k| 316.4 |   421M |  48 |1720 |1891 |3668 | 732k|  2 | 279 | 663 | 0.000000e+00 | 8.175469e+00 |    Inf |   3.28%
  161s|  6300 |  5457 |  2001k| 317.3 |   425M |  48 |1720 |1891 |3761 | 746k|  8 | 288 | 664 | 0.000000e+00 | 8.175469e+00 |    Inf |   3.28%
 time | node  | left  |LP iter|LP it/n|mem/heur|mdpt |vars |cons |rows |cuts |sepa|confs|strbr|  dualbound   | primalbound  |  gap   | compl. 
  163s|  6400 |  5545 |  2028k| 316.5 |   427M |  48 |1720 |1891 |3626 | 757k|  6 | 292 | 665 | 0.000000e+00 | 8.175469e+00 |    Inf |   3.31%
  166s|  6500 |  5625 |  2056k| 315.9 |   431M |  48 |1720 |1891 |3760 | 767k|  1 | 300 | 668 | 0.000000e+00 | 8.175469e+00 |    Inf |   3.33%
  168s|  6600 |  5707 |  2084k| 315.4 |   435M |  48 |1720 |1891 |3867 | 778k|  7 | 305 | 668 | 0.000000e+00 | 8.175469e+00 |    Inf |   3.33%
  170s|  6700 |  5803 |  2107k| 314.1 |   437M |  48 |1720 |1891 |3780 | 787k|  2 | 314 | 672 | 0.000000e+00 | 8.175469e+00 |    Inf |   3.33%
  172s|  6800 |  5881 |  2133k| 313.4 |   439M |  48 |1720 |1891 |3927 | 796k|  6 | 316 | 672 | 0.000000e+00 | 8.175469e+00 |    Inf |   3.34%
  175s|  6900 |  5963 |  2165k| 313.5 |   443M |  48 |1720 |1891 |3696 | 807k|  2 | 319 | 674 | 0.000000e+00 | 8.175469e+00 |    Inf |   3.36%
  177s|  7000 |  6037 |  2194k| 313.1 |   445M |  48 |1720 |1891 |3936 | 818k|  6 | 327 | 676 | 0.000000e+00 | 8.175469e+00 |    Inf |   3.38%
  179s|  7100 |  6113 |  2221k| 312.4 |   450M |  48 |1720 |1891 |3776 | 829k|  7 | 331 | 677 | 0.000000e+00 | 8.175469e+00 |    Inf |   3.38%
  181s|  7200 |  6205 |  2256k| 312.9 |   453M |  48 |1720 |1891 |3892 | 841k|  6 | 340 | 681 | 0.000000e+00 | 8.175469e+00 |    Inf |   3.38%
  184s|  7300 |  6291 |  2283k| 312.4 |   457M |  48 |1720 |1891 |3792 | 852k|  5 | 345 | 685 | 0.000000e+00 | 8.175469e+00 |    Inf |   3.39%
  186s|  7400 |  6373 |  2309k| 311.7 |   458M |  48 |1720 |1891 |3924 | 863k|  7 | 353 | 691 | 0.000000e+00 | 8.175469e+00 |    Inf |   3.41%
  188s|  7500 |  6447 |  2336k| 311.1 |   462M |  48 |1720 |1891 |3998 | 873k|  7 | 358 | 692 | 0.000000e+00 | 8.175469e+00 |    Inf |   3.42%
  190s|  7600 |  6535 |  2366k| 311.0 |   466M |  48 |1720 |1891 |3796 | 884k|  6 | 361 | 693 | 0.000000e+00 | 8.175469e+00 |    Inf |   3.43%
  193s|  7700 |  6613 |  2395k| 310.7 |   474M |  48 |1720 |1891 |3722 | 895k|  5 | 365 | 697 | 0.000000e+00 | 8.175469e+00 |    Inf |   3.45%
  195s|  7800 |  6707 |  2424k| 310.4 |   476M |  48 |1720 |1891 |3770 | 906k|  5 | 370 | 700 | 0.000000e+00 | 8.175469e+00 |    Inf |   3.45%
 time | node  | left  |LP iter|LP it/n|mem/heur|mdpt |vars |cons |rows |cuts |sepa|confs|strbr|  dualbound   | primalbound  |  gap   | compl. 
  197s|  7900 |  6785 |  2450k| 309.8 |   480M |  48 |1720 |1891 |3789 | 916k|  0 | 375 | 701 | 0.000000e+00 | 8.175469e+00 |    Inf |   3.45%
  199s|  8000 |  6853 |  2470k| 308.4 |   483M |  48 |1720 |1891 |3956 | 924k|  2 | 376 | 707 | 0.000000e+00 | 8.175469e+00 |    Inf |   3.46%
  201s|  8100 |  6943 |  2494k| 307.6 |   486M |  48 |1720 |1891 |4108 | 934k|  6 | 381 | 707 | 0.000000e+00 | 8.175469e+00 |    Inf |   3.47%
  203s|  8200 |  7023 |  2525k| 307.6 |   488M |  48 |1720 |1891 |3998 | 945k|  4 | 388 | 708 | 0.000000e+00 | 8.175469e+00 |    Inf |   3.47%
  205s|  8300 |  7097 |  2548k| 306.6 |   491M |  48 |1720 |1891 |3845 | 954k|  5 | 392 | 709 | 0.000000e+00 | 8.175469e+00 |    Inf |   3.47%
  207s|  8400 |  7177 |  2576k| 306.4 |   494M |  48 |1720 |1891 |3975 | 966k|  2 | 398 | 712 | 0.000000e+00 | 8.175469e+00 |    Inf |   3.48%
  209s|  8500 |  7247 |  2602k| 305.8 |   498M |  48 |1720 |1891 |3735 | 975k|  7 | 399 | 713 | 0.000000e+00 | 8.175469e+00 |    Inf |   3.50%
  211s|  8600 |  7333 |  2632k| 305.7 |   501M |  48 |1720 |1891 |3646 | 987k|  5 | 407 | 714 | 0.000000e+00 | 8.175469e+00 |    Inf |   3.52%
  213s|  8700 |  7401 |  2651k| 304.4 |   504M |  48 |1720 |1891 |3388 | 995k|  7 | 409 | 714 | 0.000000e+00 | 8.175469e+00 |    Inf |   3.56%
  215s|  8800 |  7465 |  2678k| 304.0 |   505M |  48 |1720 |1891 |3865 |1005k|  3 | 414 | 717 | 0.000000e+00 | 8.175469e+00 |    Inf |   3.57%
  218s|  8900 |  7549 |  2713k| 304.6 |   509M |  48 |1720 |1891 |3826 |1017k|  8 | 415 | 717 | 0.000000e+00 | 8.175469e+00 |    Inf |   3.57%
  220s|  9000 |  7631 |  2746k| 304.8 |   514M |  48 |1720 |1891 |3701 |1029k|  1 | 417 | 719 | 0.000000e+00 | 8.175469e+00 |    Inf |   3.57%
  223s|  9100 |  7727 |  2790k| 306.3 |   518M |  48 |1720 |1891 |3957 |1042k|  7 | 423 | 721 | 0.000000e+00 | 8.175469e+00 |    Inf |   3.57%
  225s|  9200 |  7807 |  2820k| 306.2 |   522M |  48 |1720 |1891 |3403 |1053k|  2 | 425 | 722 | 0.000000e+00 | 8.175469e+00 |    Inf |   3.57%
  228s|  9300 |  7891 |  2855k| 306.8 |   526M |  48 |1720 |1891 |3767 |1065k|  2 | 429 | 723 | 0.000000e+00 | 8.175469e+00 |    Inf |   3.57%
 time | node  | left  |LP iter|LP it/n|mem/heur|mdpt |vars |cons |rows |cuts |sepa|confs|strbr|  dualbound   | primalbound  |  gap   | compl. 
  230s|  9400 |  7977 |  2889k| 307.0 |   533M |  48 |1720 |1891 |4075 |1077k|  7 | 432 | 726 | 0.000000e+00 | 8.175469e+00 |    Inf |   3.57%
  233s|  9500 |  8063 |  2920k| 307.1 |   536M |  48 |1720 |1891 |3943 |1088k|  5 | 436 | 727 | 0.000000e+00 | 8.175469e+00 |    Inf |   3.58%
  235s|  9600 |  8139 |  2944k| 306.4 |   538M |  48 |1720 |1891 |3927 |1098k|  7 | 438 | 730 | 0.000000e+00 | 8.175469e+00 |    Inf |   3.59%
  237s|  9700 |  8215 |  2963k| 305.2 |   540M |  48 |1720 |1891 |3932 |1107k|  6 | 447 | 734 | 0.000000e+00 | 8.175469e+00 |    Inf |   3.61%
  239s|  9800 |  8301 |  2991k| 304.9 |   542M |  48 |1720 |1891 |3935 |1117k|  5 | 451 | 735 | 0.000000e+00 | 8.175469e+00 |    Inf |   3.61%
  242s|  9900 |  8391 |  3033k| 306.1 |   547M |  48 |1720 |1891 |3816 |1130k|  2 | 456 | 737 | 0.000000e+00 | 8.175469e+00 |    Inf |   3.61%
  245s| 10000 |  8483 |  3071k| 306.8 |   550M |  48 |1720 |1891 |3869 |1143k|  2 | 459 | 741 | 0.000000e+00 | 8.175469e+00 |    Inf |   3.61%
  247s| 10100 |  8573 |  3101k| 306.8 |   551M |  48 |1720 |1891 |3863 |1154k|  1 | 464 | 741 | 0.000000e+00 | 8.175469e+00 |    Inf |   3.61%
  249s| 10200 |  8663 |  3132k| 306.8 |   553M |  48 |1720 |1891 |3979 |1164k|  6 | 467 | 742 | 0.000000e+00 | 8.175469e+00 |    Inf |   3.61%
  251s| 10300 |  8729 |  3154k| 305.9 |   555M |  48 |1720 |1891 |3818 |1173k|  2 | 472 | 743 | 0.000000e+00 | 8.175469e+00 |    Inf |   3.62%
  254s| 10400 |  8817 |  3186k| 306.1 |   559M |  48 |1720 |1891 |3574 |1185k|  2 | 480 | 747 | 0.000000e+00 | 8.175469e+00 |    Inf |   3.63%
  257s| 10500 |  8911 |  3228k| 307.2 |   562M |  48 |1720 |1891 |3611 |1200k|  8 | 485 | 751 | 0.000000e+00 | 8.175469e+00 |    Inf |   3.63%
  259s| 10600 |  9003 |  3265k| 307.8 |   565M |  48 |1720 |1891 |3819 |1212k|  6 | 488 | 757 | 0.000000e+00 | 8.175469e+00 |    Inf |   3.63%
  262s| 10700 |  9097 |  3306k| 308.7 |   570M |  48 |1720 |1891 |3953 |1226k|  1 | 497 | 766 | 0.000000e+00 | 8.175469e+00 |    Inf |   3.63%
  265s| 10800 |  9179 |  3337k| 308.7 |   573M |  48 |1720 |1891 |3946 |1236k|  8 | 507 | 770 | 0.000000e+00 | 8.175469e+00 |    Inf |   3.63%
 time | node  | left  |LP iter|LP it/n|mem/heur|mdpt |vars |cons |rows |cuts |sepa|confs|strbr|  dualbound   | primalbound  |  gap   | compl. 
  267s| 10900 |  9261 |  3364k| 308.4 |   579M |  48 |1720 |1891 |3786 |1247k|  2 | 512 | 778 | 0.000000e+00 | 8.175469e+00 |    Inf |   3.63%
  270s| 11000 |  9337 |  3399k| 308.8 |   581M |  48 |1720 |1891 |3763 |1259k|  2 | 515 | 780 | 0.000000e+00 | 8.175469e+00 |    Inf |   3.63%
  272s| 11100 |  9419 |  3426k| 308.5 |   583M |  48 |1720 |1891 |3862 |1270k|  0 | 522 | 784 | 0.000000e+00 | 8.175469e+00 |    Inf |   3.63%
  275s| 11200 |  9511 |  3467k| 309.3 |   588M |  48 |1720 |1891 |3844 |1284k|  6 | 531 | 786 | 0.000000e+00 | 8.175469e+00 |    Inf |   3.63%
  277s| 11300 |  9591 |  3503k| 309.8 |   594M |  48 |1720 |1891 |3727 |1297k|  0 | 536 | 788 | 0.000000e+00 | 8.175469e+00 |    Inf |   3.63%
  279s| 11400 |  9657 |  3521k| 308.7 |   596M |  48 |1720 |1891 |4050 |1304k|  3 | 542 | 795 | 0.000000e+00 | 8.175469e+00 |    Inf |   3.64%
  281s| 11500 |  9737 |  3544k| 308.0 |   600M |  48 |1720 |1891 |4241 |1314k|  5 | 546 | 805 | 0.000000e+00 | 8.175469e+00 |    Inf |   3.64%
  283s| 11600 |  9807 |  3563k| 307.0 |   604M |  48 |1720 |1891 |3927 |1322k|  2 | 554 | 807 | 0.000000e+00 | 8.175469e+00 |    Inf |   3.64%
  286s| 11700 |  9885 |  3590k| 306.6 |   607M |  48 |1720 |1891 |4037 |1332k|  2 | 557 | 810 | 0.000000e+00 | 8.175469e+00 |    Inf |   3.65%
  288s| 11800 |  9969 |  3625k| 307.0 |   610M |  48 |1720 |1891 |3945 |1345k|  4 | 558 | 811 | 0.000000e+00 | 8.175469e+00 |    Inf |   3.65%
  291s| 11900 | 10043 |  3658k| 307.2 |   613M |  48 |1720 |1891 |3585 |1357k|  2 | 559 | 819 | 0.000000e+00 | 8.175469e+00 |    Inf |   3.65%
  293s| 12000 | 10123 |  3696k| 307.8 |   616M |  48 |1720 |1891 |4012 |1370k|  7 | 562 | 821 | 0.000000e+00 | 8.175469e+00 |    Inf |   3.65%
  296s| 12100 | 10207 |  3735k| 308.5 |   619M |  48 |1720 |1891 |3717 |1383k|  2 | 566 | 822 | 0.000000e+00 | 8.175469e+00 |    Inf |   3.66%
  299s| 12200 | 10307 |  3774k| 309.1 |   623M |  48 |1720 |1891 |3835 |1395k|  6 | 576 | 822 | 0.000000e+00 | 8.175469e+00 |    Inf |   3.66%

SCIP Status        : solving was interrupted [time limit reached]
Solving Time (sec) : 300.00
Solving Nodes      : 12226
Primal Bound       : +8.17546897396703e+00 (13 solutions)
Dual Bound         : +0.00000000000000e+00
Gap                : infinite


--- Reading solution for model GAMS_MODEL
***
*** Solver did not provide marginals for model GAMS_MODEL
***
--- Executing after solve: elapsed 0:05:00.512
--- model.gms(6253) 4 Mb
--- model.gms(9100) 6 Mb
--- Putfile results /local/scratch/a/sgusev/repos/k_means/data/gams_scip_gdp.hull_exact/no_mode/2026-02-16_18-20-48/original/results.dat
--- Putfile statresults /local/scratch/a/sgusev/repos/k_means/data/gams_scip_gdp.hull_exact/no_mode/2026-02-16_18-20-48/original/resultsstat.dat
*** Status: Normal completion
--- Job model.gms Stop 02/16/26 18:25:49 elapsed 0:05:00.516
Original problem solved. Time taken: 301.17724800109863 seconds
Original objective value: 8.175468973967032
